; QueryHash 1412086620289429615
(set-logic QF_AUFBV )
(declare-fun arg01 () (Array (_ BitVec 32) (_ BitVec 8) ) )
(assert (let ( (?B1 (select  arg01 (_ bv2 32) ) ) ) (and  (=  (_ bv102 8) ?B1 ) (=  false (=  (_ bv0 8) ?B1 ) ) ) ) )
(check-sat)
(exit)

; Assignments
; { "arg01": [0, 0, 0, 0, 0, 0, 0, 0, 0, 1, 0] }
; { "arg01": [0, 0, 0, 0, 0, 0, 0, 0, 1, 0, 0] }
; { "arg01": [0, 0, 0, 0, 0, 0, 0, 1, 0, 0, 0] }
; { "arg01": [0, 0, 0, 0, 0, 0, 1, 0, 0, 0, 0] }
; { "arg01": [0, 0, 0, 0, 0, 1, 0, 0, 0, 0, 0] }
; { "arg01": [0, 0, 0, 0, 0, 101, 0, 0, 0, 0, 0] }
; { "arg01": [0, 0, 0, 0, 0, 110, 0, 0, 0, 0, 0] }
; { "arg01": [0, 0, 0, 0, 0, 2, 0, 0, 0, 0, 0] }
; { "arg01": [0, 0, 0, 0, 0, 69, 0, 0, 0, 0, 0] }
; { "arg01": [0, 0, 0, 0, 1, 0, 0, 0, 0, 0, 0] }
; { "arg01": [0, 0, 0, 0, 101, 0, 0, 0, 0, 0, 0] }
; { "arg01": [0, 0, 0, 0, 110, 0, 0, 0, 0, 0, 0] }
; { "arg01": [0, 0, 0, 0, 2, 0, 0, 0, 0, 0, 0] }
; { "arg01": [0, 0, 0, 0, 48, 0, 0, 0, 0, 0, 0] }
; { "arg01": [0, 0, 0, 0, 69, 0, 0, 0, 0, 0, 0] }
; { "arg01": [0, 0, 0, 1, 0, 0, 0, 0, 0, 0, 0] }
; { "arg01": [0, 0, 0, 100, 0, 0, 0, 0, 0, 0, 0] }
; { "arg01": [0, 0, 0, 101, 0, 0, 0, 0, 0, 0, 0] }
; { "arg01": [0, 0, 0, 102, 0, 0, 0, 0, 0, 0, 0] }
; { "arg01": [0, 0, 0, 110, 0, 0, 0, 0, 0, 0, 0] }
; { "arg01": [0, 0, 0, 2, 0, 0, 0, 0, 0, 0, 0] }
; { "arg01": [0, 0, 0, 48, 0, 0, 0, 0, 0, 0, 0] }
; { "arg01": [0, 0, 0, 65, 0, 0, 0, 0, 0, 0, 0] }
; { "arg01": [0, 0, 0, 66, 0, 0, 0, 0, 0, 0, 0] }
; { "arg01": [0, 0, 0, 67, 0, 0, 0, 0, 0, 0, 0] }
; { "arg01": [0, 0, 0, 68, 0, 0, 0, 0, 0, 0, 0] }
; { "arg01": [0, 0, 0, 69, 0, 0, 0, 0, 0, 0, 0] }
; { "arg01": [0, 0, 0, 70, 0, 0, 0, 0, 0, 0, 0] }
; { "arg01": [0, 0, 0, 97, 0, 0, 0, 0, 0, 0, 0] }
; { "arg01": [0, 0, 0, 98, 0, 0, 0, 0, 0, 0, 0] }
; { "arg01": [0, 0, 0, 99, 0, 0, 0, 0, 0, 0, 0] }
; { "arg01": [0, 0, 1, 0, 0, 0, 0, 0, 0, 0, 0] }
; { "arg01": [0, 0, 100, 0, 0, 0, 0, 0, 0, 0, 0] }
; { "arg01": [0, 0, 101, 0, 0, 0, 0, 0, 0, 0, 0] }
; { "arg01": [0, 0, 102, 0, 0, 0, 0, 0, 0, 0, 0] }
; { "arg01": [0, 0, 2, 0, 0, 0, 0, 0, 0, 0, 0] }
; { "arg01": [0, 0, 48, 0, 0, 0, 0, 0, 0, 0, 0] }
; { "arg01": [0, 0, 49, 0, 0, 0, 0, 0, 0, 0, 0] }
; { "arg01": [0, 0, 50, 0, 0, 0, 0, 0, 0, 0, 0] }
; { "arg01": [0, 0, 51, 0, 0, 0, 0, 0, 0, 0, 0] }
; { "arg01": [0, 0, 52, 0, 0, 0, 0, 0, 0, 0, 0] }
; { "arg01": [0, 0, 53, 0, 0, 0, 0, 0, 0, 0, 0] }
; { "arg01": [0, 0, 54, 0, 0, 0, 0, 0, 0, 0, 0] }
; { "arg01": [0, 0, 55, 0, 0, 0, 0, 0, 0, 0, 0] }
; { "arg01": [0, 0, 65, 0, 0, 0, 0, 0, 0, 0, 0] }
; { "arg01": [0, 0, 66, 0, 0, 0, 0, 0, 0, 0, 0] }
; { "arg01": [0, 0, 67, 0, 0, 0, 0, 0, 0, 0, 0] }
; { "arg01": [0, 0, 68, 0, 0, 0, 0, 0, 0, 0, 0] }
; { "arg01": [0, 0, 69, 0, 0, 0, 0, 0, 0, 0, 0] }
; { "arg01": [0, 0, 70, 0, 0, 0, 0, 0, 0, 0, 0] }
; { "arg01": [0, 0, 97, 0, 0, 0, 0, 0, 0, 0, 0] }
; { "arg01": [0, 0, 98, 0, 0, 0, 0, 0, 0, 0, 0] }
; { "arg01": [0, 0, 99, 0, 0, 0, 0, 0, 0, 0, 0] }
; { "model_version": [1, 0, 0, 0] }
